(set-info :source  loris-7.ddns.comp.nus.edu.sg/~project/hip/) 
;Variables declarations
(declare-fun sm_1569 () Int)
(declare-fun s_1525 () Int)
(declare-fun l_1526 () Int)
(declare-fun v_bool_62_1389_primed () Int)
(declare-fun xs () Int)
(declare-fun n () Int)
(declare-fun flted_19_1498 () Int)
(declare-fun tmp_primed () Int)
(declare-fun n_1512 () Int)
(declare-fun xv_primed () Int)
(declare-fun Anon_1499 () Int)
(declare-fun r_1500 () Int)
(declare-fun qs_1573 () Int)
(declare-fun lg_1570 () Int)
(declare-fun flted_10_1571 () Int)
(declare-fun xs_primed () Int)
(declare-fun v_node_68_1363_primed () Int)
(declare-fun q_1572 () Int)
;Relations declarations
;Axioms assertions
;Antecedent
(assert (= (+ flted_10_1571 1) n_1512))
(assert (> q_1572 0))
(assert (<= s_1525 qs_1573))
(assert (= sm_1569 s_1525))
(assert (= lg_1570 l_1526))
(assert (not (> v_bool_62_1389_primed 0)))
(assert (> r_1500 0))
(assert (< 0 n))
(assert (= xs_primed xs))
(assert (= (+ flted_19_1498 1) n))
(assert (= n_1512 flted_19_1498))
(assert (<= 0 flted_19_1498))
(assert (not (> tmp_primed 0)))
(assert (<= 0 n_1512))
(assert (= xv_primed Anon_1499))
(assert (= v_node_68_1363_primed r_1500))
(assert (= xs_primed 1))
(assert (= v_node_68_1363_primed 2))
(assert (or (and (and (= lg_1570 qs_1573) (= flted_10_1571 1)) (> q_1572 0)) (and (and (<= qs_1573 lg_1570) (<= 2 flted_10_1571)) (> q_1572 0))))
(assert (not (= xs_primed q_1572)))
(assert (not (= xs_primed v_node_68_1363_primed)))
(assert (not (= v_node_68_1363_primed q_1572)))
;Negation of Consequence
(assert (not false))
(check-sat)